Gurobi Optimizer version 9.1.2 build v9.1.2rc0 (linux64)
Thread count: 36 physical cores, 72 logical processors, using up to 32 threads
Optimize a model with 12 rows, 57 columns and 590 nonzeros
Model fingerprint: 0xf32eec78
Model has 47 quadratic constraints
Coefficient statistics:
  Matrix range     [2e-05, 3e+00]
  QMatrix range    [1e+00, 1e+00]
  QLMatrix range   [1e+00, 1e+00]
  Objective range  [8e-03, 7e-01]
  Bounds range     [1e+00, 1e+00]
  RHS range        [1e+00, 1e+00]
Presolve removed 9 rows and 0 columns

Continuous model is non-convex -- solving as a MIP.

Presolve removed 9 rows and 0 columns
Presolve time: 0.00s
Presolved: 189 rows, 57 columns, 443 nonzeros
Presolved model has 47 bilinear constraint(s)
Variable types: 57 continuous, 0 integer (0 binary)

Root relaxation: objective -1.743721e+00, 44 iterations, 0.00 seconds

    Nodes    |    Current Node    |     Objective Bounds      |     Work
 Expl Unexpl |  Obj  Depth IntInf | Incumbent    BestBd   Gap | It/Node Time

     0     0   -1.74372    0   38          -   -1.74372      -     -    0s
H    0     0                       0.6147548   -1.74372   384%     -    0s
     0     0   -1.64739    0    1    0.61475   -1.64739   368%     -    0s
H    0     0                      -1.6450460   -1.64739  0.14%     -    0s
     0     0     cutoff    0        -1.64505   -1.64505  0.00%     -    0s

Cutting planes:
  RLT: 25
  BQP: 3

Explored 1 nodes (76 simplex iterations) in 0.01 seconds
Thread count was 32 (of 72 available processors)

Solution count 2: -1.64505 0.614755 
No other solutions better than -1.64505

Optimal solution found (tolerance 1.00e-04)
Best objective -1.645045978473e+00, best bound -1.645045978473e+00, gap 0.0000%

User-callback calls 79, time in user-callback 0.00 sec
Gurobi Optimizer version 9.1.2 build v9.1.2rc0 (linux64)
Thread count: 36 physical cores, 72 logical processors, using up to 32 threads
Optimize a model with 60 rows, 300 columns and 15500 nonzeros
Model fingerprint: 0x0ba3aaeb
Model has 250 quadratic constraints
Coefficient statistics:
  Matrix range     [1e-06, 4e+00]
  QMatrix range    [1e+00, 1e+00]
  QLMatrix range   [1e+00, 1e+00]
  Objective range  [3e-04, 1e+00]
  Bounds range     [1e+00, 1e+00]
  RHS range        [1e+00, 1e+00]
Presolve removed 10 rows and 0 columns

Continuous model is non-convex -- solving as a MIP.

Presolve removed 10 rows and 0 columns
Presolve time: 0.01s
Presolved: 1050 rows, 300 columns, 14460 nonzeros
Presolved model has 250 bilinear constraint(s)
Variable types: 300 continuous, 0 integer (0 binary)

Root relaxation: objective -2.314166e+01, 336 iterations, 0.02 seconds

    Nodes    |    Current Node    |     Objective Bounds      |     Work
 Expl Unexpl |  Obj  Depth IntInf | Incumbent    BestBd   Gap | It/Node Time

     0     0  -23.14166    0  195          -  -23.14166      -     -    0s
H    0     0                      -6.8065494  -23.14166   240%     -    0s
     0     0  -21.49814    0  142   -6.80655  -21.49814   216%     -    0s
H    0     0                     -11.7412346  -21.49814  83.1%     -    0s
     0     0  -21.02278    0  148  -11.74123  -21.02278  79.1%     -    0s
H    0     0                     -12.5951063  -21.02278  66.9%     -    0s
     0     0  -21.00182    0  138  -12.59511  -21.00182  66.7%     -    0s
     0     0  -20.99383    0  133  -12.59511  -20.99383  66.7%     -    0s
H    0     0                     -12.7046526  -20.99383  65.2%     -    0s
     0     0  -20.99274    0  133  -12.70465  -20.99274  65.2%     -    0s
     0     0  -20.99274    0  133  -12.70465  -20.99274  65.2%     -    0s
     0     2  -20.99274    0  133  -12.70465  -20.99274  65.2%     -    0s
* 1018  1087              51     -18.5636709  -20.28834  9.29%  59.6    1s
* 1944  1801              44     -19.1386466  -20.20502  5.57%  50.9    1s
* 2172  1871              60     -19.1949964  -20.20502  5.26%  50.9    1s
* 4540  1284              83     -19.1997222  -20.20502  5.24%  58.2    3s
* 4831  1250              75     -19.2501865  -20.20502  4.96%  58.2    3s
* 4832  1191              75     -19.2501882  -20.20502  4.96%  58.2    3s
* 5408  1258              84     -19.2514293  -20.20502  4.95%  57.9    3s
* 5662  1396              85     -19.2654949  -20.20502  4.88%  57.5    3s
* 5667  1345              87     -19.2654955  -20.20502  4.88%  57.5    3s
* 5708  1310             112     -19.2823760  -20.20502  4.78%  57.3    3s
* 6021  1567              67     -19.4853598  -20.20502  3.69%  56.5    4s
* 6722  1841              79     -19.6079225  -20.20502  3.05%  55.3    4s
* 6726  1841              78     -19.6079225  -20.20502  3.05%  55.3    4s
* 6954  1745              81     -19.6262246  -20.20502  2.95%  54.9    4s
* 7695  1840              65     -19.6265339  -20.11666  2.50%  53.8    4s
* 7698  1840              64     -19.6266115  -20.11666  2.50%  53.8    4s
* 7736  1840              79     -19.6517106  -20.11666  2.37%  53.6    4s
* 7737  1840              79     -19.6517107  -20.11666  2.37%  53.6    4s
* 8458  1783              59     -19.6518886  -20.09659  2.26%  51.8    4s
* 8595  1867              81     -19.6523072  -19.88557  1.19%  51.5    4s
* 8598  1867              82     -19.6523074  -19.88557  1.19%  51.5    4s
* 8599  1867              80     -19.6523185  -19.88557  1.19%  51.4    4s
* 8870  1867              61     -19.6766495  -19.88203  1.04%  50.7    4s
  8946  1916  -19.74018   27   43  -19.67665  -19.88203  1.04%  50.5    5s
* 9535  2063              56     -19.6852754  -19.80538  0.61%  48.6    5s
* 9685  2063              59     -19.6952424  -19.80538  0.56%  48.1    5s
* 9689  2063              60     -19.6952496  -19.80538  0.56%  48.1    5s
*10323  2010              55     -19.6958866  -19.75190  0.28%  46.4    5s
*10363  2010              56     -19.6971640  -19.72257  0.13%  46.3    5s
*10729  2010              62     -19.6975444  -19.72257  0.13%  45.0    5s
*10962  2064              59     -19.6988640  -19.71557  0.08%  44.3    5s
*11036  2064              60     -19.6991458  -19.71557  0.08%  44.1    5s
*11037  2064              60     -19.6991495  -19.71557  0.08%  44.1    5s
*11478  2112              59     -19.6993966  -19.71557  0.08%  42.7    5s
*11481  2112              59     -19.6994597  -19.71557  0.08%  42.7    5s
*11482  2112              59     -19.6994599  -19.71557  0.08%  42.6    5s
*11611  2112              56     -19.7028884  -19.71557  0.06%  42.3    5s
*11612  2112              56     -19.7028927  -19.71557  0.06%  42.2    5s
*11661  2112              65     -19.7038232  -19.71557  0.06%  42.1    5s
*11664  2112              67     -19.7038413  -19.71557  0.06%  42.1    5s
*11851  2112              67     -19.7040283  -19.71557  0.06%  41.6    5s
*11852  2112              67     -19.7040285  -19.71557  0.06%  41.6    5s
*12237  2068              56     -19.7043077  -19.71348  0.05%  40.5    5s
*12238  2068              56     -19.7043562  -19.71348  0.05%  40.5    5s
*12300  2068              54     -19.7044484  -19.71348  0.05%  40.3    5s
*12302  2068              55     -19.7044645  -19.71348  0.05%  40.3    5s
*12317  2068              63     -19.7049642  -19.71348  0.04%  40.3    5s
*12366  2068              59     -19.7049748  -19.71348  0.04%  40.2    5s
*12369  2068              59     -19.7049791  -19.71348  0.04%  40.2    5s
*12426  2068              57     -19.7086500  -19.71348  0.02%  40.0    5s
*12427  2068              57     -19.7086517  -19.71348  0.02%  40.0    5s
*12866  1964              58     -19.7090053  -19.71325  0.02%  38.9    5s
*12867  1964              58     -19.7090131  -19.71325  0.02%  38.9    5s
*12890  1964              58     -19.7091726  -19.71322  0.02%  38.8    5s
*12891  1964              58     -19.7092016  -19.71322  0.02%  38.8    5s
*12895  1964              59     -19.7092418  -19.71322  0.02%  38.8    5s
*12896  1964              58     -19.7092551  -19.71322  0.02%  38.8    5s
*12915  1964              57     -19.7100476  -19.71322  0.02%  38.7    5s
*13096  1964              63     -19.7103378  -19.71322  0.01%  38.3    5s
*13099  1964              62     -19.7103432  -19.71322  0.01%  38.2    5s
*13100  1964              62     -19.7103433  -19.71322  0.01%  38.2    5s
*13134  1964              68     -19.7105280  -19.71322  0.01%  38.2    5s
*13223  1964              58     -19.7119392  -19.71322  0.01%  37.9    5s
*13225  1964              59     -19.7119398  -19.71322  0.01%  37.9    5s

Explored 13695 nodes (504370 simplex iterations) in 5.75 seconds
Thread count was 32 (of 72 available processors)

Solution count 10: -19.7119 -19.7105 -19.7103 ... -19.709

Optimal solution found (tolerance 1.00e-04)
Best objective -1.971193977094e+01, best bound -1.971321745673e+01, gap 0.0065%

User-callback calls 28329, time in user-callback 0.01 sec



objective value: -19.711939770939978
objective bound: -19.713217456733023
x_opt: [0.0, 1.0, 1.0, 0.0, 0.0, 0.0, 1.0, 1.0, 0.0, 0.0, 0.257492598230931, 0.39757361142222486, 0.0, 1.0, 1.0, 1.0, 0.0, 1.0, 4.754600822742284e-5, 0.0, 0.0, 1.0, 1.0, 1.0, 0.0, 1.0, 1.0, 1.0, 0.0, 0.8171341921776205, 1.0, 0.7247863113255836, 0.0, 0.20081625660252198, 1.0, 1.0, 0.9963677017601575, 1.0, 0.49929600019990605, 1.0, 0.8937797686491098, 0.12217233589473593, 1.0, 0.0, 0.0, 0.7134455556362695, 0.1458070009502116, 3.950097407975449e-5, 0.00015874770648978932, 1.0]
GUROBI solution time: 5.754754066467285

